p cnf 26 65
a 5 7 0
d 1 5 0
d 2 7 0
d 3 7 0
d 4 5 7 0
d 6 5 7 0
d 8 5 7 0
d 9 5 0
d 10 5 7 0
d 11 5 0
d 12 5 7 0
d 13 5 7 0
d 14 5 7 0
d 15 5 7 0
d 16 5 7 0
d 17 5 7 0
d 18 5 7 0
d 19 5 7 0
d 20 5 7 0
d 21 5 7 0
d 22 7 0
d 23 5 7 0
d 24 5 7 0
d 25 5 7 0
d 26 5 7 0
3 2 0
-3 -2 0
-4 1 0
-4 3 0
4 -1 -3 0
-6 4 0
-6 5 0
6 -4 -5 0
-8 6 0
-8 7 0
8 -6 -7 0
9 1 0
-9 -1 0
-10 9 0
-10 2 0
10 -9 -2 0
11 5 0
-11 -5 0
-12 10 0
-12 11 0
12 -10 -11 0
-13 12 0
-13 7 0
13 -12 -7 0
14 -8 0
14 -13 0
-14 8 13 0
-15 4 0
-15 11 0
15 -4 -11 0
-16 15 0
-16 7 0
16 -15 -7 0
17 -14 0
17 -16 0
-17 14 16 0
-18 9 0
-18 3 0
18 -9 -3 0
-19 18 0
-19 11 0
19 -18 -11 0
-20 19 0
-20 7 0
20 -19 -7 0
21 -17 0
21 -20 0
-21 17 20 0
22 7 0
-22 -7 0
-23 12 0
-23 22 0
23 -12 -22 0
24 -21 0
24 -23 0
-24 21 23 0
25 -5 7 0
25 5 -7 0
-25 -5 -7 0
-25 5 7 0
26 -24 -25 0
26 24 25 0
-26 -24 25 0
-26 24 -25 0
26 0
